
  16    0


   0  10 2 3 6 7 10 11 12 13 14 15 
   4   2 9 5 
  10   1 4 
   1   1 8 
   1   1 8 
   1   1 9 
  10   1 9 
   2   1 16
   6   1 16
   8   1 16
   8   1 16
   6   1 16
   4   1 16
   3   1 16
   8   1 16
   0   0 
